objective value:                                   -5
t_n_5                                               1 	(obj:-1)
t_n_546                                             1 	(obj:-1)
t_n_701                                             1 	(obj:-1)
t_n_738                                             1 	(obj:-1)
t_n_841                                             1 	(obj:-1)
